5 5
3 17 4 87 2 17 1 23 0 39
3 33 0 66 4 10 1 83 2 40
3 73 4 15 2 43 0 88 1 12
0 22 3 18 1 66 2 62 4 61
1 60 4 79 3 39 0 73 2 22
-1
0 1 2 3 5
0 1 4 5
0 2 4 5
0 1 2 4 5
0 3 5
-2
25 162 165 226
49 227 336
138 293 268
25 49 237 365
230 323

395 6
15 6 4 23 13
20 17 3 8 14
2 18 12 24 9
0 16 5 10 22
1 21 7 11 19
